RT is False
Default write of storage_offers_DA.csv just to have a file (but constraint should be inactive)
Reading model...
...model read.
creating competitive generators file...
...competitive generators recorded.
Loading data...
.. day-ahead data with real-time VRE data read.
Compiling instance...
...instance created.
Creating Offer Mitigation (model will solve as dispatch if TRUE)...
Solving...

Welcome to IBM(R) ILOG(R) CPLEX(R) Interactive Optimizer 12.9.0.0
  with Simplex, Mixed Integer & Barrier Optimizers
5725-A06 5725-A29 5724-Y48 5724-Y49 5724-Y54 5724-Y55 5655-Y21
Copyright IBM Corp. 1988, 2019.  All Rights Reserved.

Type 'help' for a list of available commands.
Type 'help' followed by a command name for more
information on commands.

CPLEX> Logfile 'cplex.log' closed.
Logfile 'C:\Users\Luke\Desktop\test919\logs\tmpj1y4lsr0.cplex.log' open.
CPLEX> New value for parallel optimization mode: -1
CPLEX> New value for mixed integer optimality gap tolerance: 0.01
CPLEX> New value for integrality tolerance: 1e-09
CPLEX> New value for feasibility tolerance: 0.01
CPLEX> New value for deterministic time limit in ticks: 75000
CPLEX> Problem 'C:\Users\Luke\Desktop\test919\logs\tmp5r3zuyks.pyomo.lp' read.
Read time = 0.05 sec. (3.04 ticks)
CPLEX> Problem name         : C:\Users\Luke\Desktop\test919\logs\tmp5r3zuyks.pyomo.lp
Objective sense      : Minimize
Variables            :   26081  [Nneg: 1,  Box: 21616,  Free: 4464]
Objective nonzeros   :    2496
Linear constraints   :   27515  [Less: 14006,  Greater: 4416,  Equal: 9093]
  Nonzeros           :   89219
  RHS nonzeros       :   12271

Variables            : Min LB: -5000.000        Max UB: 1000000.       
Objective nonzeros   : Min   : 15.73158         Max   : 124.0997       
Linear constraints   :
  Nonzeros           : Min   : 0.8500000        Max   : 3000.000       
  RHS nonzeros       : Min   : 0.3666667        Max   : 5000.000       
CPLEX> CPXPARAM_Parallel                                -1
CPXPARAM_Simplex_Tolerances_Feasibility          0.01
CPXPARAM_DetTimeLimit                            75000
CPXPARAM_MIP_Tolerances_MIPGap                   0.01
CPXPARAM_MIP_Tolerances_Integrality              1.0000000000000001e-09
Parallel mode: opportunistic, using up to 12 threads for concurrent optimization.
Tried aggregator 1 time.
LP Presolve eliminated 21377 rows and 15487 columns.
Aggregator did 746 substitutions.
Reduced LP has 5392 rows, 9848 columns, and 31788 nonzeros.
Presolve time = 0.05 sec. (30.20 ticks)
Symmetry aggregator did 5563 additional substitutions.
Initializing dual steep norms . . .

Iteration log . . .
Iteration:     1   Dual objective     =             0.000000
Perturbation started.
Iteration:   101   Dual objective     =             0.000000
Iteration:   285   Dual objective     =            47.502694
Iteration:   432   Dual objective     =            69.530168
Iteration:   651   Dual objective     =            71.914194
Iteration:   911   Dual objective     =            71.937727
Iteration:  1095   Dual objective     =            71.963215
Iteration:  1330   Dual objective     =          3762.910357
Removing perturbation.

Dual crossover.
  Dual:  Fixed no variables.
  Primal:  Fixed no variables.
Using devex.

Primal simplex solved model.


Primal simplex - Optimal:  Objective =  1.2091638983e+04
Solution time =    0.11 sec.  Iterations = 1499 (1002)
Deterministic time = 76.14 ticks  (698.57 ticks/sec)

CPLEX> Solution written to file 'C:\Users\Luke\Desktop\test919\logs\tmpo0u8ml5h.cplex.sol'.
CPLEX> Exporting results... 
...storage offer mitigation file created
Converting model to MPEC...
...converted
NOTE: initial MIP solve with only storage competitive to get feasible solution
Solving...

Welcome to IBM(R) ILOG(R) CPLEX(R) Interactive Optimizer 12.9.0.0
  with Simplex, Mixed Integer & Barrier Optimizers
5725-A06 5725-A29 5724-Y48 5724-Y49 5724-Y54 5724-Y55 5655-Y21
Copyright IBM Corp. 1988, 2019.  All Rights Reserved.

Type 'help' for a list of available commands.
Type 'help' followed by a command name for more
information on commands.

CPLEX> Logfile 'cplex.log' closed.
Logfile 'C:\Users\Luke\Desktop\test919\logs\tmpv5u0pvtj.cplex.log' open.
CPLEX> New value for parallel optimization mode: -1
CPLEX> New value for mixed integer optimality gap tolerance: 0.01
CPLEX> New value for integrality tolerance: 1e-09
CPLEX> New value for feasibility tolerance: 0.01
CPLEX> New value for deterministic time limit in ticks: 75000
CPLEX> Problem 'C:\Users\Luke\Desktop\test919\logs\tmphmb31pz_.pyomo.lp' read.
Read time = 0.20 sec. (14.78 ticks)
CPLEX> Problem name         : C:\Users\Luke\Desktop\test919\logs\tmphmb31pz_.pyomo.lp
Objective sense      : Maximize
Variables            :   53805  [Nneg: 1,  Box: 22000,  Free: 4464,
                                 Binary: 27340]
Objective nonzeros   :    9029
Linear constraints   :  123205  [Less: 41346,  Greater: 59096,  Equal: 22763]
  Nonzeros           :  291753
  RHS nonzeros       :   67411

Variables            : Min LB: -5000.000        Max UB: 1000000.       
Objective nonzeros   : Min   : 0.3666667        Max   : 2500.000       
Linear constraints   :
  Nonzeros           : Min   : 0.3666667        Max   : 1000000.       
  RHS nonzeros       : Min   : 0.3666667        Max   : 1000000.       
CPLEX> CPXPARAM_Parallel                                -1
CPXPARAM_Simplex_Tolerances_Feasibility          0.01
CPXPARAM_DetTimeLimit                            75000
CPXPARAM_MIP_Tolerances_MIPGap                   0.01
CPXPARAM_MIP_Tolerances_Integrality              1.0000000000000001e-09
Tried aggregator 3 times.
MIP Presolve eliminated 88657 rows and 18981 columns.
MIP Presolve added 3378 rows and 0 columns.
MIP Presolve modified 24867 coefficients.
Aggregator did 13001 substitutions.
Reduced MIP has 24925 rows, 21267 columns, and 71094 nonzeros.
Reduced MIP has 8410 binaries, 0 generals, 0 SOSs, and 0 indicators.
Presolve time = 0.23 sec. (173.78 ticks)
Probing fixed 369 vars, tightened 2854 bounds.
Probing time = 1.52 sec. (880.14 ticks)
Tried aggregator 2 times.
MIP Presolve eliminated 833 rows and 738 columns.
MIP Presolve modified 2213 coefficients.
Aggregator did 35 substitutions.
Reduced MIP has 24057 rows, 20494 columns, and 68585 nonzeros.
Reduced MIP has 8041 binaries, 0 generals, 0 SOSs, and 0 indicators.
Presolve time = 0.09 sec. (66.33 ticks)
Probing time = 0.03 sec. (16.26 ticks)
Clique table members: 6316.
MIP emphasis: balance optimality and feasibility.
MIP search method: dynamic search.
Parallel mode: opportunistic, using up to 12 threads.
Root relaxation solution time = 0.34 sec. (488.87 ticks)

        Nodes                                         Cuts/
   Node  Left     Objective  IInf  Best Integer    Best Bound    ItCnt     Gap

      0     0        0.0000   643                      0.0000     5275         
*     0+    0                            0.0000        0.0000             0.00%
      0     0        cutoff              0.0000        0.0000     5275    0.00%
Elapsed time = 3.20 sec. (2080.80 ticks, tree = 0.01 MB, solutions = 1)

Root node processing (before b&c):
  Real time             =    3.20 sec. (2082.74 ticks)
Parallel b&c, 12 threads:
  Real time             =    0.00 sec. (0.00 ticks)
  Sync time (average)   =    0.00 sec.
  Wait time (average)   =    0.00 sec.
                          ------------
Total (root+branch&cut) =    3.20 sec. (2082.74 ticks)

Solution pool: 1 solution saved.

MIP - Integer optimal solution:  Objective =  1.2769305613e-09
Solution time =    3.20 sec.  Iterations = 5275  Nodes = 0
Deterministic time = 2082.90 ticks  (650.30 ticks/sec)

CPLEX> Incumbent solution written to file 'C:\Users\Luke\Desktop\test919\logs\tmpga_9tjn2.cplex.sol'.
CPLEX> NOTE: no warmstart specified for MIP iteration, default behavior is true
NOTE: resolving with all competitive generators using storage-only solution to warmstart
Solving...

Welcome to IBM(R) ILOG(R) CPLEX(R) Interactive Optimizer 12.9.0.0
  with Simplex, Mixed Integer & Barrier Optimizers
5725-A06 5725-A29 5724-Y48 5724-Y49 5724-Y54 5724-Y55 5655-Y21
Copyright IBM Corp. 1988, 2019.  All Rights Reserved.

Type 'help' for a list of available commands.
Type 'help' followed by a command name for more
information on commands.

CPLEX> Logfile 'cplex.log' closed.
Logfile 'C:\Users\Luke\Desktop\test919\logs\tmps0w34aj2.cplex.log' open.
CPLEX> New value for parallel optimization mode: -1
CPLEX> New value for mixed integer optimality gap tolerance: 0.01
CPLEX> New value for integrality tolerance: 1e-09
CPLEX> New value for feasibility tolerance: 0.01
CPLEX> New value for deterministic time limit in ticks: 75000
CPLEX> Problem 'C:\Users\Luke\Desktop\test919\logs\tmpcxttlyzy.pyomo.lp' read.
Read time = 0.20 sec. (14.81 ticks)
CPLEX> MIP start file 'C:\Users\Luke\Desktop\test919\logs\tmpmwnnu445.cplex.mst' read.
CPLEX> Problem name         : C:\Users\Luke\Desktop\test919\logs\tmpcxttlyzy.pyomo.lp
Objective sense      : Maximize
Variables            :   54525  [Nneg: 1,  Box: 22720,  Free: 4464,
                                 Binary: 27340]
Objective nonzeros   :    9725
Linear constraints   :  123205  [Less: 41346,  Greater: 59096,  Equal: 22763]
  Nonzeros           :  291753
  RHS nonzeros       :   67411

Variables            : Min LB: -5000.000        Max UB: 1000000.       
Objective nonzeros   : Min   : 0.3666667        Max   : 2500.000       
Linear constraints   :
  Nonzeros           : Min   : 0.3666667        Max   : 1000000.       
  RHS nonzeros       : Min   : 0.3666667        Max   : 1000000.       
CPLEX> CPXPARAM_Parallel                                -1
CPXPARAM_Simplex_Tolerances_Feasibility          0.01
CPXPARAM_DetTimeLimit                            75000
CPXPARAM_MIP_Tolerances_MIPGap                   0.01
CPXPARAM_MIP_Tolerances_Integrality              1.0000000000000001e-09
Warning:  No solution found from 1 MIP starts.
Retaining values of one MIP start for possible repair.
Tried aggregator 3 times.
MIP Presolve eliminated 88657 rows and 19701 columns.
MIP Presolve added 3378 rows and 0 columns.
MIP Presolve modified 24867 coefficients.
Aggregator did 13001 substitutions.
Reduced MIP has 24925 rows, 21267 columns, and 71094 nonzeros.
Reduced MIP has 8410 binaries, 0 generals, 0 SOSs, and 0 indicators.
Presolve time = 0.23 sec. (174.14 ticks)
Probing fixed 369 vars, tightened 2854 bounds.
Probing time = 1.53 sec. (880.14 ticks)
Tried aggregator 2 times.
MIP Presolve eliminated 833 rows and 738 columns.
MIP Presolve modified 2213 coefficients.
Aggregator did 35 substitutions.
Reduced MIP has 24057 rows, 20494 columns, and 68585 nonzeros.
Reduced MIP has 8041 binaries, 0 generals, 0 SOSs, and 0 indicators.
Presolve time = 0.09 sec. (66.33 ticks)
Probing time = 0.05 sec. (16.26 ticks)
Clique table members: 6316.
MIP emphasis: balance optimality and feasibility.
MIP search method: dynamic search.
Parallel mode: opportunistic, using up to 12 threads.
Root relaxation solution time = 0.30 sec. (238.93 ticks)

        Nodes                                         Cuts/
   Node  Left     Objective  IInf  Best Integer    Best Bound    ItCnt     Gap

      0     0   122507.1762  1726                 122507.1762     5354         
      0     0   116258.6916   643                   Cuts: 492     5625         
      0     0   115531.4331   598                   Cuts: 143     5715         
      0     0   115328.9004   572                    Cuts: 74     5762         
      0     0   115221.8166   547                    Cuts: 64     5791         
      0     0   115221.8166   522                    Cuts: 58     5817         
      0     0   115221.8166   506                    Cuts: 51     5836         
      0     0   112206.3321   473                    Cuts: 40     5914         
      0     0   112141.8939   468                    Cuts: 41     5944         
      0     0   112141.8939   464                    Cuts: 26     5951         
      0     0   112141.8939   464                    Cuts: 14     5953         
Repair heuristic found nothing.
      0     8    infeasible                        90301.9290     6118         
Elapsed time = 12.78 sec. (6372.45 ticks, tree = 0.02 MB, solutions = 0)
    145    59    72182.9508   402                  88840.8558     6872         
    309   177    60456.7036   385                  88840.8558     9648         
    458   355    35686.8205   397                  88840.8558    14586         
    673   397    29322.1809   397                  88840.8558    15959         
    940   501    infeasible                        88840.8558    17493         
   1245   695    infeasible                        88840.8558    20607         
   1613   838   -18630.2223   358                  88840.8558    21383         
   1911  1099     2800.0661   328                  88840.8558    21979         
   2191  1680   -18630.2223   345                  88840.8558    22224         
   4099  2814    -2217.5899   323                  88840.8558    22752         
Elapsed time = 25.38 sec. (9480.15 ticks, tree = 24.78 MB, solutions = 2)
*  4434  2896      integral     0   -19205.6810    88840.8558    22765  562.58%
   4447  3058        cutoff         -19205.6810    64231.8295    30485  434.44%
   5097   144        cutoff         -19205.6810    62656.8113    32667  426.24%
   5860   492     7584.6911    55   -19205.6810    52434.9549    38845  373.02%
   6143  1171   -17997.8267    44   -19205.6810    52434.9549    51334  373.02%
   7028  1565    13884.0284    58   -19205.6810    50550.8695    61576  363.21%
   7990  1994        cutoff         -19205.6810    43681.2320    72261  327.44%
   8947  2272     5522.7084    56   -19205.6810    39606.7588    77449  306.22%
   9738  3322    10953.0120   101   -19205.6810    38555.3910   104190  300.75%
  10587  3953    21526.6405    60   -19205.6810    38555.3910   121479  300.75%
  11308  3848   -15498.9065    39   -19205.6810    38555.3910   118348  300.75%
Elapsed time = 76.31 sec. (24612.05 ticks, tree = 28.40 MB, solutions = 2)
  12022  4834        cutoff         -19205.6810    38555.3910   142750  300.75%
  12687  4871    -7494.3484    81   -19205.6810    38555.3910   143316  300.75%
  13251  4920   -15779.6687    59   -19205.6810    38555.3910   144407  300.75%
  13884  5067   -10330.6300    45   -19205.6810    38555.3910   148588  300.75%
  14416  5569        0.0000     2   -19205.6810    38555.3910   158574  300.75%
  14810  5738    -9208.6344    41   -19205.6810    38555.3910   162587  300.75%
  15119  6633        cutoff         -19205.6810    38555.3910   182737  300.75%
  15339  6492        cutoff         -19205.6810    38555.3910   180240  300.75%
  15565  7022     8039.0938    41   -19205.6810    38555.3910   190068  300.75%
  15681  7184        cutoff         -19205.6810    38555.3910   192654  300.75%
Elapsed time = 112.20 sec. (34185.41 ticks, tree = 54.95 MB, solutions = 2)
  15789  7253   -15670.0763    78   -19205.6810    38555.3910   194138  300.75%
  15919  6986     1949.7501     1   -19205.6810    38555.3910   189484  300.75%
  15990  7485     1914.6899    70   -19205.6810    38555.3910   198206  300.75%
  16111  6554        cutoff         -19205.6810    38555.3910   181235  300.75%
  16301  7703     6829.1114    58   -19205.6810    38555.3910   204873  300.75%
  16547  7902     7486.1405    23   -19205.6810    38555.3910   209408  300.75%
  16693  7702     3648.0870    62   -19205.6810    38555.3910   204561  300.75%
  16812  7852   -17878.0291    74   -19205.6810    38555.3910   208572  300.75%
  16933  7904    -1939.3140    43   -19205.6810    38555.3910   209713  300.75%
  17044  7215        cutoff         -19205.6810    38555.3910   193271  300.75%
Elapsed time = 130.25 sec. (43818.59 ticks, tree = 55.15 MB, solutions = 2)
  17109  7216     7486.1405     5   -19205.6810    38555.3910   193274  300.75%
  17200  7417        cutoff         -19205.6810    38555.3910   196655  300.75%
  17353  7434        cutoff         -19205.6810    38555.3910   196907  300.75%
  17460  7965        cutoff         -19205.6810    38555.3910   210253  300.75%
  17547  8120    17166.9980    40   -19205.6810    38555.3910   212089  300.75%
  17662  7442        0.0000     2   -19205.6810    38555.3910   196931  300.75%
  17794  8260    -5804.6176    30   -19205.6810    38555.3910   213443  300.75%
  17905  7946        cutoff         -19205.6810    38555.3910   209808  300.75%
  18001  8341     9956.4813    40   -19205.6810    38555.3910   215017  300.75%
  18110  8413     2778.6346    16   -19205.6810    38555.3910   215647  300.75%
Elapsed time = 143.70 sec. (53441.91 ticks, tree = 64.67 MB, solutions = 2)
  18237  8492     2940.1288    14   -19205.6810    38555.3910   216291  300.75%
  18343  7718        cutoff         -19205.6810    38555.3910   204791  300.75%
  18421  7907        cutoff         -19205.6810    38555.3910   209279  300.75%
  18454  7956        cutoff         -19205.6810    38555.3910   209928  300.75%
  18475  7978        cutoff         -19205.6810    38555.3910   210296  300.75%
  18495  7952        cutoff         -19205.6810    38555.3910   209876  300.75%
  18511  7958        cutoff         -19205.6810    38555.3910   209944  300.75%
  18530  7913     -759.1704     4   -19205.6810    38555.3910   209296  300.75%
  18541  7979        cutoff         -19205.6810    38555.3910   210120  300.75%
  18560  7983        cutoff         -19205.6810    38555.3910   210167  300.75%
Elapsed time = 145.78 sec. (63529.12 ticks, tree = 61.26 MB, solutions = 2)
  18573  7983        cutoff         -19205.6810    38555.3910   210168  300.75%
  18587  7952        cutoff         -19205.6810    38555.3910   209881  300.75%
  18598  7959        cutoff         -19205.6810    38555.3910   209953  300.75%
  18610  7952        cutoff         -19205.6810    38555.3910   209877  300.75%
  18623  7984     7486.1405     4   -19205.6810    38555.3910   210172  300.75%
  18630  7985        cutoff         -19205.6810    38555.3910   210179  300.75%
  18643  7984        cutoff         -19205.6810    38555.3910   210185  300.75%
  18652  7987        cutoff         -19205.6810    38555.3910   210210  300.75%
  18659  7987        cutoff         -19205.6810    38555.3910   210211  300.75%
  18663  7983        cutoff         -19205.6810    38555.3910   210174  300.75%
Elapsed time = 145.78 sec. (73659.19 ticks, tree = 61.25 MB, solutions = 2)
  18668  7985     7322.3567     4   -19205.6810    38555.3910   210189  300.75%

Clique cuts applied:  9
Cover cuts applied:  6
Implied bound cuts applied:  48
Flow cuts applied:  1269
Mixed integer rounding cuts applied:  357
Gomory fractional cuts applied:  83

Root node processing (before b&c):
  Real time             =   12.33 sec. (6353.90 ticks)
Parallel b&c, 12 threads:
  Real time             =  133.52 sec. (69753.17 ticks)
  Sync time (average)   =    0.83 sec.
  Wait time (average)   =    0.04 sec.
                          ------------
Total (root+branch&cut) =  145.84 sec. (76107.07 ticks)

Solution pool: 2 solutions saved.

MIP - Deterministic time limit exceeded, integer feasible:  Objective = -1.9205681025e+04
Current MIP best bound =  3.8555390983e+04 (gap = 57761.1, 300.75%)
Solution time =  145.84 sec.  Iterations = 221669  Nodes = 18671 (8916)
Deterministic time = 76107.23 ticks  (521.84 ticks/sec)

CPLEX> Incumbent solution written to file 'C:\Users\Luke\Desktop\test919\logs\tmpu350j5na.cplex.sol'.
CPLEX> Exporting results... 
